n = 10; 

m=8; 


13	22	30	17	40	16	21	49	44	48
32	47	14	71	71	69	37	72	71	17
76	47	73	57	63	69	17	35	24	29
5	9	6	28	11	32	8	14	19	10
6	12	7	32	23	28	18	23	21	23
12	12	12	33	8	23	15	9	22	29
4	18	12	34	11	20	5	8	26	10
76	47	73	57	63	69	17	35	24	29









 
 


 

 
